sat
(:max-memory          18.18
 :memory              17.61
 :num-allocs          155211
 :rlimit-count        15693
 :sls-ddfw-flips      246.00
 :sls-ddfw-shifts     34.00
 :solve-eqs-elim-vars 4
 :solve-eqs-steps     8
 :time                0.00
 :total-time          0.01)
